results/res_prop_muc/res_Cimatti_mathsat_cores/QF_LRA/clocksynchro_8clocks.worst_case_skew.induct.smt.smt2.out
### boolMucExtractionTime 19247270
